SECTION Graph
Nodes 132
Edges 230
E 1 21 7
E 1 104 3
E 1 106 3
E 2 22 7
E 2 109 3
E 3 107 10
E 3 109 1
E 4 5 10
E 4 25 9
E 4 98 3
E 4 100 3
E 5 26 9
E 5 103 3
E 6 99 12
E 6 103 1
E 6 105 6
E 7 8 10
E 7 29 9
E 7 91 3
E 7 93 3
E 8 30 9
E 8 96 3
E 9 92 12
E 9 96 1
E 9 97 6
E 10 11 10
E 10 35 13
E 10 85 3
E 11 36 13
E 11 89 3
E 12 89 1
E 12 90 6
E 13 14 1
E 13 62 1
E 14 64 1
E 14 68 3
E 15 76 1
E 15 79 2
E 16 78 1
E 16 79 1
E 17 18 10
E 17 108 7
E 18 20 7
E 19 104 9
E 19 108 3
E 20 108 10
E 20 109 6
E 21 22 10
E 21 101 7
E 21 102 3
E 22 24 7
E 22 107 1
E 23 98 9
E 23 101 3
E 23 102 7
E 24 101 10
E 24 103 6
E 24 105 1
E 25 26 10
E 25 94 7
E 25 95 3
E 26 28 7
E 26 99 1
E 27 91 9
E 27 94 3
E 27 95 7
E 28 94 10
E 28 96 6
E 28 97 1
E 29 30 10
E 29 87 7
E 29 88 3
E 30 32 7
E 30 92 1
E 31 33 4
E 31 87 3
E 31 88 7
E 32 34 4
E 32 87 10
E 32 90 1
E 33 84 20
E 33 86 3
E 34 86 10
E 34 89 2
E 35 36 10
E 35 83 14
E 35 84 1
E 36 38 14
E 37 81 2
E 37 83 1
E 37 84 14
E 38 40 2
E 38 83 10
E 39 40 10
E 39 41 1
E 39 81 1
E 39 83 2
E 40 42 1
E 41 42 10
E 41 75 9
E 41 80 1
E 42 82 9
E 43 68 1
E 43 71 1
E 44 74 10
E 44 78 3
E 44 82 1
E 45 46 10
E 45 47 1
E 45 59 1
E 45 63 6
E 46 48 1
E 46 76 6
E 47 48 10
E 47 57 1
E 47 58 1
E 48 50 1
E 49 52 1
E 49 53 1
E 50 58 10
E 51 53 89
E 52 54 1
E 52 55 1
E 53 55 1
E 54 56 1
E 54 57 1
E 55 57 1
E 55 58 1
E 56 59 1
E 56 60 6
E 57 59 1
E 59 61 6
E 60 61 1
E 60 62 2
E 61 63 1
E 61 65 2
E 62 64 1
E 62 65 1
E 63 67 2
E 63 76 10
E 64 66 1
E 64 70 3
E 65 66 1
E 65 67 1
E 66 69 1
E 66 72 3
E 67 69 1
E 67 77 10
E 68 70 1
E 69 74 3
E 69 78 10
E 70 71 1
E 70 72 1
E 71 73 1
E 72 73 1
E 72 74 1
E 73 75 1
E 73 80 9
E 74 75 1
E 75 82 10
E 76 77 2
E 77 78 1
E 77 79 1
E 80 81 1
E 85 86 2
E 85 89 10
E 86 87 4
E 88 91 9
E 90 92 7
E 93 94 6
E 93 96 10
E 95 98 9
E 97 99 7
E 100 101 6
E 100 103 10
E 102 104 7
E 105 107 7
E 106 108 6
E 106 109 10
E 1 110 100000
E 2 110 100000
E 3 110 100000
E 4 111 100000
E 5 111 100000
E 6 111 100000
E 7 112 100000
E 8 112 100000
E 9 112 100000
E 10 113 100000
E 11 113 100000
E 12 113 100000
E 13 114 100000
E 14 114 100000
E 15 114 100000
E 16 114 100000
E 17 115 100000
E 18 115 100000
E 19 116 100000
E 20 116 100000
E 21 117 100000
E 22 117 100000
E 23 118 100000
E 24 118 100000
E 25 119 100000
E 26 119 100000
E 27 120 100000
E 28 120 100000
E 29 121 100000
E 30 121 100000
E 31 122 100000
E 32 122 100000
E 33 123 100000
E 34 123 100000
E 35 124 100000
E 36 124 100000
E 37 125 100000
E 38 125 100000
E 39 126 100000
E 40 126 100000
E 41 127 100000
E 42 127 100000
E 43 128 100000
E 44 128 100000
E 45 129 100000
E 46 129 100000
E 47 130 100000
E 48 130 100000
E 49 131 100000
E 50 131 100000
E 51 132 100000
END

SECTION Terminals
Terminals 23
T 110
T 111
T 112
T 113
T 114
T 115
T 116
T 117
T 118
T 119
T 120
T 121
T 122
T 123
T 124
T 125
T 126
T 127
T 128
T 129
T 130
T 131
T 132
END

EOF
